
  12    4
  10   10   10   10

   0   0   0   0   0   6 2 3 5 6 7 11 
   2  10  10  10  10   3 10 9 8 
  10  10  10  10  10   1 4 
  10  10  10  10  10   1 8 
   2  10  10  10  10   1 9 
   2  10  10  10  10   1 8 
   9  10  10  10  10   1 8 
   1  10  10  10  10   1 12
   4  10  10  10  10   1 12
   2  10  10  10  10   1 12
   9  10  10  10  10   1 12
   0   0   0   0   0   0 
